533,258
504,378
531,406
542,-21
977,110
427,660
795,443
998,-30
945,42
644,169
681,526
736,577
894,298
1095,471
1184,327
921,406
681,136
593,527
366,635
415,599
368,507
787,512
885,806
998,-30
681,166
871,596
681,676
417,770
334,229
639,140
269,107
351,406
802,494
765,490
681,466
